src/LKH/IO/anjos-80-05.tsp
NAME: anjos-80-05
TYPE: TSP
DIMENSION: 80
EDGE_WEIGHT_TYPE: EXPLICIT
EDGE_WEIGHT_FORMAT: FULL_MATRIX
EDGE_WEIGHT_SECTION
0 0 0 0 0 0 0 0 -1 -2 -1 0 -1 -1 0 0 0 -1 0 -1 -1 -1 -1 -1 0 0 -1 -1 -1 -1 0 -1 -1 -1 0 -1 -2 0 0 0 0 -1 -2 0 0 0 -1 0 -1 -1 -1 0 0 -1 -1 -1 0 0 0 -1 -2 0 -1 -1 0 -1 -1 -1 0 -2 -2 -1 -1 -1 0 -1 -1 0 -1 -1
0 0 0 0 0 0 0 0 0 0 0 0 0 0 -1 0 0 0 0 0 -1 0 0 -1 0 -1 0 0 0 -1 -1 0 0 0 0 0 0 -1 0 0 0 0 -1 0 0 0 -1 0 0 0 0 0 0 0 0 0 0 0 0 0 -1 0 0 0 0 -1 -1 -1 -1 -1 0 0 0 0 0 -1 0 0 0 0
0 0 0 0 0 0 -1 -1 -1 -2 -1 -1 -1 -1 -1 -1 0 -1 -1 -1 0 -2 0 -1 -1 -1 0 0 -1 0 0 -2 -1 -1 0 -2 -1 -1 -2 0 0 0 -2 -1 -2 0 0 -1 0 -1 -1 0 0 0 -1 0 -1 0 -2 0 0 -1 -1 -1 -1 -1 -1 0 -1 0 -1 0 0 0 0 -1 -2 -1 -1 -1
0 0 0 0 0 0 0 0 0 -1 0 0 0 -1 -2 -1 0 -1 -2 -1 0 -1 -1 0 0 0 0 -1 0 -1 -2 -1 0 0 0 0 -1 -1 0 -1 0 0 -2 -1 -2 0 0 0 0 -1 -1 0 0 0 -1 0 -1 0 0 0 0 -1 -1 0 -1 -2 -1 0 -2 -1 0 0 0 0 0 0 -1 0 0 -1
0 0 0 0 0 0 0 0 0 -1 -1 0 -1 -1 -1 -2 0 -1 0 -1 0 -1 0 -1 -1 0 0 0 -1 -1 -1 -2 0 -1 0 -1 -1 -1 -1 -1 -1 -1 -1 -1 -2 -1 0 -1 0 -2 -1 0 0 -1 -1 -1 -2 0 -1 0 0 -1 -2 0 -1 -1 0 -1 -2 -1 0 0 -1 0 0 -1 -3 0 0 0
0 0 0 0 0 0 -1 0 -1 0 0 0 0 -1 0 0 0 -1 0 0 -1 0 0 -1 0 0 0 0 0 0 0 -2 -1 0 0 -1 -1 -1 0 0 0 0 0 -1 -1 0 0 0 0 -1 -1 -1 0 0 -1 0 -1 0 0 -1 -1 0 0 0 -1 -1 0 0 0 -1 -1 0 -1 0 0 0 0 0 0 0
0 0 -1 0 0 -1 0 0 0 -1 -1 0 0 0 0 0 0 -1 -1 0 -1 -1 0 0 0 0 0 0 0 -1 -1 0 0 0 -1 -1 0 0 -1 -1 0 0 -1 0 0 0 -1 0 0 -1 0 0 0 0 0 -1 -1 0 -2 0 -1 0 -1 0 0 0 0 0 0 -1 0 0 -1 0 -1 -1 -2 -1 0 0
0 0 -1 0 0 0 0 0 0 -1 -1 0 0 -1 0 0 0 -1 -2 -1 -1 -1 0 0 0 0 0 0 -1 0 0 -2 0 0 0 -1 -1 0 0 0 0 0 -1 -1 -2 0 -2 0 -1 -1 -1 0 0 0 -1 0 -1 0 -1 -1 0 -2 0 -1 -1 0 0 0 -1 -1 0 -1 0 0 -1 -1 0 0 0 -1
-1 0 -1 0 0 -1 0 0 0 -1 -1 0 0 0 -1 0 0 -1 -2 -1 0 -1 0 -1 0 0 -1 -1 0 -2 -1 -1 -1 -2 -1 0 -1 -1 -1 0 0 -2 -1 -1 -2 0 -1 0 -1 -1 -1 0 0 -1 -1 0 -1 0 -1 0 0 -1 0 -1 -1 -1 0 0 0 -2 -2 0 -1 0 -1 -2 -1 -1 0 -1
-2 0 -2 -1 -1 0 -1 -1 -1 0 -2 0 -1 0 0 -1 0 -2 0 -1 -1 0 -1 0 -1 0 0 0 0 -1 0 -1 -1 0 0 -2 -2 -1 -1 -2 0 0 0 -1 -1 -1 -1 0 0 -1 0 0 -2 -1 -1 0 0 0 0 0 -1 -1 -1 0 -1 0 0 -2 0 -3 -2 0 -1 -2 0 -1 0 -1 -1 0
-1 0 -1 0 -1 0 -1 -1 -1 -2 0 0 0 0 0 -1 0 -1 0 0 -1 -1 0 0 0 0 -1 0 0 -1 -1 -1 0 -1 -1 0 0 0 0 -1 0 -1 -1 0 -1 0 0 0 0 -1 -1 -1 0 0 0 -1 -1 0 0 0 -1 -1 -1 -1 0 0 0 -1 -1 -1 0 0 0 -1 0 -1 -1 0 -1 0
0 0 -1 0 0 0 0 0 0 0 0 0 0 -1 0 0 0 0 0 0 0 0 0 0 0 0 -1 -1 -1 0 0 -1 0 0 0 0 0 0 0 -1 0 -1 -1 0 -1 0 0 0 0 0 0 0 0 -1 -1 0 -1 0 -1 -1 0 -1 0 -1 -1 0 0 0 0 0 -1 0 0 -1 0 0 -1 0 0 -1
-1 0 -1 0 -1 0 0 0 0 -1 0 0 0 0 0 -2 0 0 -1 -1 0 -1 0 -1 0 -1 -1 -1 0 0 -1 -1 0 -1 -1 0 0 0 -1 -1 0 -1 -1 0 -1 0 0 0 -1 -1 -1 0 0 0 0 -1 -1 0 -2 -2 -1 -1 0 0 -1 0 0 0 -1 0 -2 -1 -1 0 -1 -1 -1 -1 0 -1
-1 0 -1 -1 -1 -1 0 -1 0 0 0 -1 0 0 -1 -1 0 -1 -2 -1 -1 -1 -1 0 0 0 -1 -1 0 -1 -1 -1 -1 -1 -1 0 0 0 -1 0 0 0 -1 0 0 -1 0 0 -1 -1 -1 0 0 0 0 0 -1 0 -1 0 -1 0 -1 -1 0 -1 -1 0 0 -1 -1 -1 0 0 -1 -1 -1 -1 -1 -1
0 -1 -1 -2 -1 0 0 0 -1 0 0 0 0 -1 0 -1 0 -1 -1 -2 0 0 -1 -2 0 0 -1 -2 -1 -1 -1 -2 -1 -1 0 -1 -1 -1 0 0 0 -1 -2 -1 -2 0 0 0 0 -2 -1 -1 0 -1 -1 -1 -1 -1 -1 -1 -1 0 -1 0 -1 -2 -2 0 0 -1 -2 -1 0 -1 -1 0 0 -1 -1 -2
0 0 -1 -1 -2 0 0 0 0 -1 -1 0 -2 -1 -1 0 -1 -2 0 -2 0 -1 -2 -2 0 0 0 0 0 0 -1 -2 -1 0 0 -1 -1 0 -1 -2 0 -1 -2 -1 -2 -1 0 0 0 -2 -1 0 0 0 -1 0 -1 0 -1 -1 0 -1 -2 -1 -1 -2 -2 0 -1 0 -2 -1 0 0 0 -1 -1 -1 -1 -2
0 0 0 0 0 0 0 0 0 0 0 0 0 0 0 -1 0 0 -1 -1 0 0 0 -1 0 0 0 0 0 0 0 -1 -1 0 0 0 -1 0 0 0 0 0 0 0 -1 0 0 0 0 -1 -1 0 0 0 0 0 0 -1 0 -1 0 0 0 0 0 -1 0 -1 0 0 -2 0 0 0 0 -1 0 0 0 -1
-1 0 -1 -1 -1 -1 -1 -1 -1 -2 -1 0 0 -1 -1 -2 0 0 -2 -2 0 -1 -2 -1 0 -1 -1 -1 -1 -1 -1 -1 0 -2 -2 0 0 -1 -1 -2 -1 -1 -3 -1 0 -1 -1 0 -1 -2 0 -2 0 -1 -1 -2 -2 0 -1 0 -1 -2 -2 -1 0 -1 -1 0 -1 0 -2 -2 -1 0 -2 -1 -2 -2 0 -2
0 0 -1 -2 0 0 -1 -2 -2 0 0 0 -1 -2 -1 0 -1 -2 0 -1 -1 -1 0 0 0 0 0 0 0 -2 -1 -3 -2 0 0 -2 -1 -1 0 0 0 -1 -2 -2 -1 0 0 0 -1 -1 -1 0 -1 -2 -2 0 -1 0 -1 0 -1 -2 -1 -1 -2 -2 0 0 0 -2 -1 -1 -1 -1 -1 -1 -2 -1 0 -1
-1 0 -1 -1 -1 0 0 -1 -1 -1 0 0 -1 -1 -2 -2 -1 -2 -1 0 0 -1 -1 -1 0 0 0 -2 -1 -2 -2 -3 -1 0 -1 -1 -1 0 -1 -2 -2 -1 -2 -1 -2 0 0 0 -1 -3 -1 0 0 -1 -2 -1 -2 0 -2 -1 0 -1 -1 -1 -1 -1 -2 0 -1 -2 -2 -1 -1 0 -1 0 -1 -1 -1 -2
-1 -1 0 0 0 -1 -1 -1 0 -1 -1 0 0 -1 0 0 0 0 -1 0 0 -1 0 0 0 0 -1 -1 0 -2 -1 0 -1 -1 -1 -1 0 -1 -1 0 0 -1 -1 -1 -1 0 -1 0 -1 0 0 0 0 -1 0 0 0 0 -1 0 0 -1 0 -1 0 0 0 0 0 -2 -1 -1 -1 -2 -1 -2 -1 -1 0 -1
-1 0 -2 -1 -1 0 -1 -1 -1 0 -1 0 -1 -1 0 -1 0 -1 -1 -1 -1 0 0 -2 0 0 0 -1 -1 -1 0 -2 -1 -1 0 -2 -1 0 0 0 0 0 0 -1 -2 0 0 0 0 -2 0 -1 -1 -1 -1 0 -1 0 0 -1 -1 0 0 0 -2 -1 -1 0 0 -2 -2 0 -1 -1 0 0 0 0 -1 0
-1 0 0 -1 0 0 0 0 0 -1 0 0 0 -1 -1 -2 0 -2 0 -1 0 0 0 -1 0 0 0 0 -1 -1 0 -2 0 0 0 0 -1 0 0 0 0 -1 -1 -1 -2 0 0 0 -1 -2 -1 0 0 0 -1 -1 -2 -1 -1 0 0 -1 -1 -1 -1 -1 0 0 -2 0 -1 0 0 0 0 -1 -2 0 0 0
-1 -1 -1 0 -1 -1 0 0 -1 0 0 0 -1 0 -2 -2 -1 -1 0 -1 0 -2 -1 0 0 0 0 -2 -1 -1 -1 -1 0 0 -1 -1 -2 -1 0 -1 0 -1 -2 -1 -1 0 0 0 -1 -1 -1 0 0 -1 -1 -2 -1 -1 -1 -1 0 -1 0 -2 -1 -1 -1 -1 0 -1 -2 -1 -1 0 0 -1 -1 0 0 -1
0 0 -1 0 -1 0 0 0 0 -1 0 0 0 0 0 0 0 0 0 0 0 0 0 0 0 0 0 0 0 0 0 0 0 0 -1 0 0 0 0 -1 0 0 -1 0 0 0 0 0 0 0 0 0 0 0 0 0 0 0 -1 0 0 0 0 0 0 0 0 -1 -1 0 0 -1 0 0 0 0 0 0 0 -1
0 -1 -1 0 0 0 0 0 0 0 0 0 -1 0 0 0 0 -1 0 0 0 0 0 0 0 0 0 -1 -1 0 0 0 -1 0 -1 0 0 0 0 -1 0 -1 -1 -1 0 0 0 0 -1 0 0 0 -1 -1 0 -1 0 0 -1 -1 -1 0 0 -1 0 0 0 0 0 -1 -1 0 -1 -1 0 0 0 -1 0 -1
-1 0 0 0 0 0 0 0 -1 0 -1 -1 -1 -1 -1 0 0 -1 0 0 -1 0 0 0 0 0 0 0 -1 -1 0 -2 -1 0 0 -1 -1 0 0 0 0 0 0 0 0 0 0 0 0 -2 -1 0 0 0 -1 0 -1 0 0 -1 -1 0 0 -1 -1 -1 -1 0 0 -1 -1 0 0 -1 0 0 0 0 -1 0
-1 0 0 -1 0 0 0 0 -1 0 0 -1 -1 -1 -2 0 0 -1 0 -2 -1 -1 0 -2 0 -1 0 0 -1 -2 -1 -2 -1 -1 0 0 -1 0 0 0 0 -1 -1 -1 0 0 -1 0 -1 -1 0 0 0 -1 -1 -1 -1 -1 -1 -1 0 -1 0 -1 -1 -2 0 0 0 -1 -1 0 0 -1 0 -1 0 0 -2 -1
-1 0 -1 0 -1 0 0 -1 0 0 0 -1 0 0 -1 0 0 -1 0 -1 0 -1 -1 -1 0 -1 -1 -1 0 -1 0 -1 -1 0 -1 -1 0 0 0 -2 0 -1 -1 0 -1 -1 0 0 0 -1 -1 0 0 0 -1 -2 -1 -2 0 0 0 -1 -1 -1 -1 -1 0 0 -2 0 -1 -1 0 -1 0 -1 -1 -1 -1 -1
-1 -1 0 -1 -1 0 -1 0 -2 -1 -1 0 0 -1 -1 0 0 -1 -2 -2 -2 -1 -1 -1 0 0 -1 -2 -1 0 0 -2 -1 -1 0 -1 -2 -1 0 0 0 -1 -2 -2 -1 0 -1 0 -1 -1 -1 -1 -1 -1 -1 0 -1 -1 0 -1 -1 -1 0 -1 -1 -2 -1 -1 -1 -2 -1 0 0 -2 -1 -2 0 0 -1 -1
0 -1 0 -2 -1 0 -1 0 -1 0 -1 0 -1 -1 -1 -1 0 -1 -1 -2 -1 0 0 -1 0 0 0 -1 0 0 0 -2 -1 -1 0 -2 -1 -1 0 0 0 -1 -1 -1 -2 0 -1 0 0 -2 0 -1 0 -1 -1 0 -1 -1 0 0 0 -1 0 0 -1 -1 -1 0 0 -1 -1 0 0 -1 -1 -1 -1 0 -1 0
-1 0 -2 -1 -2 -2 0 -2 -1 -1 -1 -1 -1 -1 -2 -2 -1 -1 -3 -3 0 -2 -2 -1 0 0 -2 -2 -1 -2 -2 0 -1 -1 -2 -1 -1 -1 -1 0 -1 -1 -3 -3 -2 -1 -1 -1 -2 -1 -1 0 -1 -1 -1 -2 0 -1 -2 -1 -1 -1 -2 0 -1 -3 -1 -1 0 -1 -2 -2 -1 0 -2 -2 -2 -2 0 -3
-1 0 -1 0 0 -1 0 0 -1 -1 0 0 0 -1 -1 -1 -1 0 -2 -1 -1 -1 0 0 0 -1 -1 -1 -1 -1 -1 -1 0 -1 -1 -2 -1 0 -1 0 0 0 -1 -1 0 0 -1 0 -1 0 -1 0 0 -1 -1 0 0 0 -1 0 -1 -1 0 0 0 -1 -1 0 0 -3 -2 0 -1 -1 -2 -2 -1 -1 0 -1
-1 0 -1 0 -1 0 0 0 -2 0 -1 0 -1 -1 -1 0 0 -2 0 0 -1 -1 0 0 0 0 0 -1 0 -1 -1 -1 -1 0 0 -1 0 0 0 0 0 0 0 -1 -2 0 -1 0 0 0 0 0 -1 0 -1 0 0 0 0 0 0 0 0 0 -1 -1 0 -2 0 -2 0 0 -1 0 -1 -1 0 0 0 0
0 0 0 0 0 0 -1 0 -1 0 -1 0 -1 -1 0 0 0 -2 0 -1 -1 0 0 -1 -1 -1 0 0 -1 0 0 -2 -1 0 0 -2 -1 -1 -1 0 0 -1 -1 -1 -2 0 0 0 0 -1 -1 0 -1 -1 -1 0 -1 0 0 0 -1 -1 -1 -1 -1 -2 0 0 0 -1 -1 0 0 -1 -1 -1 0 0 0 0
-1 0 -2 0 -1 -1 -1 -1 0 -2 0 0 0 0 -1 -1 0 0 -2 -1 -1 -2 0 -1 0 0 -1 0 -1 -1 -2 -1 -2 -1 -2 0 0 -1 0 -2 0 -1 -2 -1 -1 0 -1 0 -2 -1 -1 -1 0 -1 -1 -2 -1 -1 -1 0 0 -1 -1 -1 0 -1 -1 -1 -2 -2 0 -1 -1 -1 -1 -2 -1 -1 -1 -1
-2 0 -1 -1 -1 -1 0 -1 -1 -2 0 0 0 0 -1 -1 -1 0 -1 -1 0 -1 -1 -2 0 0 -1 -1 0 -2 -1 -1 -1 0 -1 0 0 -1 -1 -1 0 -1 -1 -2 0 0 -1 0 -1 0 0 0 0 -1 -1 -1 0 0 -2 -1 -1 -1 0 0 0 -1 -2 -1 0 -1 -2 -2 -1 0 -1 -2 0 0 0 -1
0 -1 -1 -1 -1 -1 0 0 -1 -1 0 0 0 0 -1 0 0 -1 -1 0 -1 0 0 -1 0 0 0 0 0 -1 -1 -1 0 0 -1 -1 -1 0 0 -1 0 0 0 -1 0 0 0 0 0 0 -1 -1 -1 -1 -1 -1 -1 -1 0 0 -1 0 0 0 -1 0 -2 -2 -1 -1 -1 0 0 -1 -1 0 0 0 0 -1
0 0 -2 0 -1 0 -1 0 -1 -1 0 0 -1 -1 0 -1 0 -1 0 -1 -1 0 0 0 0 0 0 0 0 0 0 -1 -1 0 -1 0 -1 0 0 -1 -1 0 0 -1 -1 0 0 0 0 -1 0 0 -1 0 -1 0 -1 0 -1 0 0 0 -1 0 -1 -1 0 0 0 -1 -1 -1 -1 0 -1 0 -1 0 0 -1
0 0 0 -1 -1 0 -1 0 0 -2 -1 -1 -1 0 0 -2 0 -2 0 -2 0 0 0 -1 -1 -1 0 0 -2 0 0 0 0 0 0 -2 -1 -1 -1 0 0 -1 -1 -1 -2 0 0 -1 -1 -2 -1 0 0 -1 0 -1 -1 0 -1 0 0 -1 -1 0 0 -1 -1 0 -2 -1 0 0 -2 -2 -1 -1 -1 0 -1 -1
0 0 0 0 -1 0 0 0 0 0 0 0 0 0 0 0 0 -1 0 -2 0 0 0 0 0 0 0 0 0 0 0 -1 0 0 0 0 0 0 -1 0 0 -1 0 -1 -1 0 0 0 0 -1 0 0 0 0 0 0 -1 0 0 0 0 -1 0 0 0 0 0 0 -1 0 0 0 0 0 0 -1 0 0 0 -1
-1 0 0 0 -1 0 0 0 -2 0 -1 -1 -1 0 -1 -1 0 -1 -1 -1 -1 0 -1 -1 0 -1 0 -1 -1 -1 -1 -1 0 0 -1 -1 -1 0 0 -1 -1 0 -1 -1 0 0 0 0 0 -2 -2 0 0 0 0 -1 0 -1 0 0 -1 0 0 -1 0 -1 -1 -2 -1 -1 -1 -1 0 -1 0 0 -1 0 0 -1
-2 -1 -2 -2 -1 0 -1 -1 -1 0 -1 -1 -1 -1 -2 -2 0 -3 -2 -2 -1 0 -1 -2 -1 -1 0 -1 -1 -2 -1 -3 -1 0 -1 -2 -1 0 0 -1 0 -1 0 -2 -2 0 -1 0 -1 -3 -1 0 -1 -1 -1 -1 -2 -1 0 -1 -1 -2 -1 -2 -1 -2 -1 -2 -2 -2 -1 0 -1 -2 -1 -2 -1 0 -2 -1
0 0 -1 -1 -1 -1 0 -1 -1 -1 0 0 0 0 -1 -1 0 -1 -2 -1 -1 -1 -1 -1 0 -1 0 -1 0 -2 -1 -3 -1 -1 -1 -1 -2 -1 -1 -1 -1 -1 -2 0 -1 0 0 0 -1 -2 -1 -1 0 -1 -1 -1 -1 0 -1 0 -1 -1 -1 0 -1 -2 -2 -1 -1 -1 -2 -1 -1 0 -1 -1 -1 -1 -1 -2
0 0 -2 -2 -2 -1 0 -2 -2 -1 -1 -1 -1 0 -2 -2 -1 0 -1 -2 -1 -2 -2 -1 0 0 0 0 -1 -1 -2 -2 0 -2 -2 -1 0 0 -1 -2 -1 0 -2 -1 0 -1 0 0 0 -2 -1 0 0 0 -1 -1 -1 0 -2 0 -2 -1 -2 -1 0 -1 -1 -1 -1 0 -1 -1 0 -1 -1 0 -3 -1 -2 -2
0 0 0 0 -1 0 0 0 0 -1 0 0 0 -1 0 -1 0 -1 0 0 0 0 0 0 0 0 0 0 -1 0 0 -1 0 0 0 0 0 0 0 0 0 0 0 0 -1 0 0 0 0 -1 0 -1 0 0 -1 0 -1 -1 0 0 -1 0 -1 0 -1 0 0 -1 -1 0 0 0 -1 0 0 0 -1 0 0 0
-1 -1 0 0 0 0 -1 -2 -1 -1 0 0 0 0 0 0 0 -1 0 0 -1 0 0 0 0 0 0 -1 0 -1 -1 -1 -1 -1 0 -1 -1 0 0 0 0 0 -1 0 0 0 0 0 0 0 -1 0 0 -1 -1 0 0 0 0 0 -1 0 -1 0 -1 0 0 -1 0 -1 -1 0 0 -1 0 0 -1 0 -1 -2
0 0 -1 0 -1 0 0 0 0 0 0 0 0 0 0 0 0 0 0 0 0 0 0 0 0 0 0 0 0 0 0 -1 0 0 0 0 0 0 0 -1 0 0 0 0 0 0 0 0 -1 0 0 0 0 0 0 0 0 0 0 0 0 0 0 0 -1 0 0 0 0 -1 0 -1 0 0 0 0 0 0 0 0
-1 0 0 0 0 0 0 -1 -1 0 0 0 -1 -1 0 0 0 -1 -1 -1 -1 0 -1 -1 0 -1 0 -1 0 -1 0 -2 -1 0 0 -2 -1 0 0 -1 0 0 -1 -1 0 0 0 -1 0 -2 -1 0 0 0 -1 0 -1 -1 0 -1 -1 -1 0 0 -1 -1 -1 -1 -2 -1 -1 -2 0 -2 -1 -1 0 -1 -1 -1
-1 0 -1 -1 -2 -1 -1 -1 -1 -1 -1 0 -1 -1 -2 -2 -1 -2 -1 -3 0 -2 -2 -1 0 0 -2 -1 -1 -1 -2 -1 0 0 -1 -1 0 0 -1 -2 -1 -2 -3 -2 -2 -1 0 0 -2 0 -1 0 0 -1 -1 -1 -2 0 -1 0 0 -1 -2 -2 -2 -3 -1 0 -1 0 -1 -2 0 0 -1 0 -2 -2 0 -2
-1 0 -1 -1 -1 -1 0 -1 -1 0 -1 0 -1 -1 -1 -1 -1 0 -1 -1 0 0 -1 -1 0 0 -1 0 -1 -1 0 -1 -1 0 -1 -1 0 -1 0 -1 0 -2 -1 -1 -1 0 -1 0 -1 -1 0 0 0 -1 0 -1 -1 0 0 0 0 0 -1 -1 0 -1 0 0 0 0 -2 0 0 0 -1 -1 0 -1 0 -1
0 0 0 0 0 -1 0 0 0 0 -1 0 0 0 -1 0 0 -2 0 0 0 -1 0 0 0 0 0 0 0 -1 -1 0 0 0 0 -1 0 -1 0 0 0 0 0 -1 0 -1 0 0 0 0 0 0 0 0 0 0 0 0 -1 0 0 0 0 0 0 -1 0 0 0 -2 0 0 -1 0 -1 -1 0 0 0 -1
0 0 0 0 0 0 0 0 0 -2 0 0 0 0 0 0 0 0 -1 0 0 -1 0 0 0 -1 0 0 0 -1 0 -1 0 -1 -1 0 0 -1 -1 0 0 0 -1 0 0 0 0 0 0 0 0 0 0 0 -1 0 -1 0 -1 0 0 0 0 0 0 0 0 0 0 0 0 0 0 0 -1 -1 -2 -1 0 -1
-1 0 0 0 -1 0 0 0 -1 -1 0 -1 0 0 -1 0 0 -1 -2 -1 -1 -1 0 -1 0 -1 0 -1 0 -1 -1 -1 -1 0 -1 -1 -1 -1 0 -1 0 0 -1 -1 0 0 -1 0 0 -1 -1 0 0 0 0 -1 0 -2 0 0 -1 0 0 0 -1 -2 -1 -2 -1 -2 -1 -1 -1 -1 -1 -1 0 0 0 -1
-1 0 -1 -1 -1 -1 0 -1 -1 -1 0 -1 0 0 -1 -1 0 -1 -2 -2 0 -1 -1 -1 0 0 -1 -1 -1 -1 -1 -1 -1 -1 -1 -1 -1 -1 -1 0 0 0 -1 -1 -1 -1 -1 0 -1 -1 0 0 -1 0 0 -1 0 0 -1 -1 -1 0 -1 0 -1 -1 -1 0 0 -1 -1 -1 -1 0 -1 -1 -1 -1 0 -2
-1 0 0 0 -1 0 -1 0 0 0 -1 0 -1 0 -1 0 0 -2 0 -1 0 0 -1 -2 0 -1 0 -1 -2 0 0 -2 0 0 0 -2 -1 -1 0 -1 0 -1 -1 -1 -1 0 0 0 0 -1 -1 0 0 -1 -1 0 -1 0 -2 -1 0 -1 0 -2 -1 -2 -1 0 0 -1 -1 -1 0 -1 0 -1 0 0 0 0
0 0 -1 -1 -2 -1 -1 -1 -1 0 -1 -1 -1 -1 -1 -1 0 -2 -1 -2 0 -1 -2 -1 0 0 -1 -1 -1 -1 -1 0 0 0 -1 -1 0 -1 -1 -1 -1 0 -2 -1 -1 -1 0 0 -1 -2 -1 0 -1 0 0 -1 0 0 -1 0 -1 0 -1 -1 0 -2 -1 -1 0 0 -1 -1 0 -2 -1 0 0 -1 0 -2
0 0 0 0 0 0 0 0 0 0 0 0 0 0 -1 0 -1 0 0 0 0 0 -1 -1 0 0 0 -1 -2 -1 -1 -1 0 0 0 -1 0 -1 0 0 0 -1 -1 0 0 -1 0 0 -1 0 0 0 0 -2 0 0 0 0 -1 -1 0 0 0 0 -1 -1 0 0 0 0 -1 0 -1 0 -1 0 0 0 0 -1
0 0 -2 0 -1 0 -2 -1 -1 0 0 -1 -2 -1 -1 -1 0 -1 -1 -2 -1 0 -1 -1 -1 -1 0 -1 0 0 0 -2 -1 0 0 -1 -2 0 -1 -1 0 0 0 -1 -2 0 0 0 0 -1 0 -1 -1 0 -1 -2 -1 -1 0 0 -1 0 0 0 -2 -2 0 -2 0 -1 -1 0 -1 -2 -1 0 0 0 0 0
-1 0 0 0 0 -1 0 -1 0 0 0 -1 -2 0 -1 -1 -1 0 0 -1 0 -1 0 -1 0 -1 -1 -1 0 -1 0 -1 0 0 0 0 -1 0 0 0 0 0 -1 0 0 0 0 0 -1 0 0 0 0 0 -1 -1 0 -1 0 0 0 0 0 -1 0 -1 0 -1 0 0 0 0 -1 0 -1 -1 0 0 0 -1
-2 -1 0 0 0 -1 -1 0 0 -1 -1 0 -1 -1 -1 0 0 -1 -1 0 0 -1 0 0 0 -1 -1 0 0 -1 0 -1 -1 0 -1 0 -1 -1 0 0 0 -1 -1 -1 -2 -1 -1 0 -1 0 0 0 0 -1 -1 0 -1 0 -1 0 0 -1 0 0 -1 -2 0 0 0 0 -1 0 -2 0 -1 -2 -1 -1 0 -1
0 0 -1 -1 -1 0 0 -2 -1 -1 -1 -1 -1 0 0 -1 0 -2 -2 -1 -1 0 -1 -1 0 0 0 -1 -1 -1 -1 -1 -1 0 -1 -1 -1 0 0 -1 -1 0 -2 -1 -1 0 0 0 -1 -1 0 0 0 0 0 -1 0 0 0 0 -1 0 -1 0 0 -1 -1 -1 0 -1 -2 -1 0 -1 -1 0 -1 0 -1 -1
-1 0 -1 -1 -2 0 -1 0 0 -1 -1 0 0 -1 -1 -2 0 -2 -1 -1 0 0 -1 0 0 0 0 0 -1 0 0 -2 0 0 -1 -1 0 0 -1 -1 0 0 -1 -1 -2 -1 -1 0 0 -2 -1 0 0 0 -1 0 -1 0 0 0 0 -1 0 0 -1 -1 -1 0 0 -1 -1 -1 0 0 -1 -1 -1 0 -1 -1
-1 0 -1 0 0 0 0 -1 -1 0 -1 -1 0 -1 0 -1 0 -1 -1 -1 -1 0 -1 -2 0 -1 -1 -1 -1 -1 0 0 0 0 -1 -1 0 0 0 0 0 -1 -2 0 -1 0 0 0 0 -2 -1 0 0 0 0 -2 -1 0 0 -1 0 0 0 0 0 -1 -1 0 -2 0 -1 0 0 -1 0 0 -1 0 0 0
0 0 -1 -1 -1 -1 0 -1 -1 -1 0 -1 -1 0 -1 -1 0 0 -2 -1 0 -2 -1 -1 0 0 -1 -1 -1 -1 -1 -1 0 -1 -1 0 0 -1 -1 0 0 0 -1 -1 0 -1 -1 -1 -1 -2 0 0 0 -1 -1 -1 0 -1 -2 0 -1 0 -1 0 0 -2 -1 -1 -1 -1 -1 -1 -1 0 -1 -1 -2 -1 0 -2
-1 -1 -1 -2 -1 -1 0 0 -1 0 0 0 0 -1 -2 -2 -1 -1 -2 -1 0 -1 -1 -1 0 0 -1 -2 -1 -2 -1 -3 -1 -1 -2 -1 -1 0 -1 -1 0 -1 -2 -2 -1 0 0 0 -1 -3 -1 -1 0 -2 -1 -2 -2 -1 -2 -1 -2 -1 -1 -1 -2 0 -2 -1 0 -2 -2 -2 -1 -1 -1 -1 -1 0 0 -2
-1 -1 -1 -1 0 0 0 0 0 0 0 0 0 -1 -2 -2 0 -1 0 -2 0 -1 0 -1 0 0 -1 0 0 -1 -1 -1 -1 0 0 -1 -2 -2 0 -1 0 -1 -1 -2 -1 0 0 0 -1 -1 0 0 0 -1 -1 -1 -1 0 0 0 0 -1 -1 -1 -1 -2 0 -2 0 0 -1 0 0 0 0 0 -1 0 0 -1
-1 -1 0 0 -1 0 0 0 0 -2 -1 0 0 0 0 0 -1 0 0 0 0 0 0 -1 -1 0 0 0 0 -1 0 -1 0 -2 0 -1 -1 -2 0 0 0 -2 -2 -1 -1 -1 -1 0 -1 0 0 0 0 -2 0 0 -1 0 -2 -1 0 -1 0 0 -1 -1 -2 0 -1 0 -1 0 0 -2 0 -1 0 0 0 0
0 -1 -1 -2 -2 0 0 -1 0 0 -1 0 -1 0 0 -1 0 -1 0 -1 0 0 -2 0 -1 0 0 0 -2 -1 0 0 0 0 0 -2 0 -1 0 -2 -1 -1 -2 -1 -1 -1 0 0 -2 -1 0 0 0 -1 0 0 0 0 0 0 0 0 0 -2 -1 0 0 -1 0 0 -1 -1 0 0 0 -1 0 0 0 -1
-2 -1 0 -1 -1 -1 -1 -1 -2 -3 -1 0 0 -1 -1 0 0 0 -2 -2 -2 -2 0 -1 0 -1 -1 -1 0 -2 -1 -1 -3 -2 -1 -2 -1 -1 -1 -1 0 -1 -2 -1 0 0 -1 -1 -1 0 0 -2 0 -2 -1 -1 0 0 -1 0 0 -1 -1 0 -1 -2 0 0 0 0 -2 -1 -1 -1 -1 -3 -1 -1 0 -2
-2 0 -1 0 0 -1 0 0 -2 -2 0 -1 -2 -1 -2 -2 -2 -2 -1 -2 -1 -2 -1 -2 0 -1 -1 -1 -1 -1 -1 -2 -2 0 -1 0 -2 -1 -1 0 0 -1 -1 -2 -1 0 -1 0 -1 -1 -2 0 0 -1 -1 -1 -1 -1 -1 0 -1 -2 -1 -1 -1 -2 -1 -1 -1 -2 0 -1 -2 -1 -2 -1 -1 -1 0 -1
-1 0 0 0 0 0 0 -1 0 0 0 0 -1 -1 -1 -1 0 -2 -1 -1 -1 0 0 -1 -1 0 0 0 -1 0 0 -2 0 0 0 -1 -2 0 -1 0 0 -1 0 -1 -1 0 0 -1 -2 -2 0 0 0 -1 -1 -1 -1 0 0 0 0 -1 -1 0 -1 -2 0 0 -1 -1 -1 0 -1 0 0 -1 -2 0 -1 0
-1 0 0 0 -1 -1 -1 0 -1 -1 0 0 -1 0 0 0 0 -1 -1 -1 -1 -1 0 -1 0 -1 0 0 0 0 0 -1 -1 -1 0 -1 -1 0 -1 -2 0 0 -1 -1 0 -1 0 0 0 0 0 -1 0 -1 -1 0 0 -1 -1 -1 -2 0 0 0 -1 -1 0 0 0 -1 -2 -1 0 -1 0 0 0 0 -1 -1
-1 0 0 0 0 0 0 0 0 -2 -1 -1 0 0 -1 0 0 0 -1 0 -2 -1 0 0 0 -1 -1 -1 -1 -2 -1 0 -1 0 -1 -1 0 -1 0 -2 0 -1 -2 0 -1 0 -1 0 -2 0 0 0 0 -1 0 -1 -2 0 -2 0 0 -1 0 -1 0 -1 0 -2 0 -1 -1 0 -1 0 -1 -2 0 0 -1 0
0 0 0 0 0 0 -1 -1 -1 0 0 0 -1 -1 -1 0 0 -2 -1 -1 -1 0 0 0 0 0 0 0 0 -1 -1 -2 -2 -1 -1 -1 -1 -1 -1 -1 0 0 -1 -1 -1 0 0 0 -1 -1 -1 -1 -1 -1 -1 0 -1 -1 -1 -1 -1 -1 -1 0 -1 -1 0 0 0 -1 -2 0 0 -1 0 -1 0 -1 -1 -1
-1 -1 -1 0 -1 0 -1 -1 -2 -1 -1 0 -1 -1 0 -1 -1 -1 -1 0 -2 0 -1 -1 0 0 0 -1 -1 -2 -1 -2 -2 -1 -1 -2 -2 0 0 -1 -1 0 -2 -1 0 0 0 0 -1 0 -1 -1 -1 -1 -1 -1 0 0 0 -1 -2 0 -1 0 -1 -1 0 -1 -1 -3 -1 -1 0 -2 -1 0 -2 0 -1 -1
-1 0 -2 -1 -3 0 -2 0 -1 0 -1 -1 -1 -1 0 -1 0 -2 -2 -1 -1 0 -2 -1 0 0 0 0 -1 0 -1 -2 -1 0 0 -1 0 0 -1 -1 0 -1 -1 -1 -3 -1 -1 0 0 -2 0 0 -2 0 -1 0 0 0 0 0 -1 -1 -1 -1 -2 -1 -1 0 0 -1 -1 -2 0 0 0 -2 0 0 -1 -2
0 0 -1 0 0 0 -1 0 -1 -1 0 0 -1 -1 -1 -1 0 -2 -1 -1 -1 0 0 0 0 -1 0 0 -1 0 0 -2 -1 0 0 -1 0 0 0 0 0 0 0 -1 -1 0 0 0 -1 -2 -1 0 -1 0 -1 0 -1 0 0 0 -1 0 0 0 -1 0 0 0 0 -1 -1 0 0 0 -1 0 0 0 0 0
-1 0 -1 0 0 0 0 0 0 -1 -1 0 0 -1 -1 -1 0 0 0 -1 0 -1 0 0 0 0 -1 -2 -1 -1 -1 0 0 0 0 -1 0 0 0 -1 0 0 -2 -1 -2 0 -1 0 -1 0 0 0 0 0 0 0 0 0 0 0 0 -1 -1 0 0 0 0 0 0 0 0 -1 -1 -1 -1 -1 -1 0 0 0
-1 0 -1 -1 0 0 0 -1 -1 0 0 -1 -1 -1 -2 -2 -1 -2 -1 -2 -1 0 0 -1 -1 -1 0 -1 -1 -1 0 -3 -1 0 0 -1 -1 -1 -1 -1 -1 -1 -1 -2 -2 0 -2 0 -1 -2 -1 -1 -1 -1 -2 0 -2 -1 0 -1 -1 -1 -1 0 -2 -2 -1 0 -1 -2 -1 0 -1 0 -1 -1 -2 0 0 0
EOF