src/LKH/IO/anjos-80-05.tour
NAME : anjos-80-05.-152.tour
COMMENT : Length = -152
COMMENT : Found by LKH [Keld Helsgaun] Sun Apr 13 17:05:00 2025
TYPE : TOUR
DIMENSION : 80
TOUR_SECTION
1
37
44
30
21
76
70
33
75
18
43
32
66
50
20
41
39
3
22
65
59
7
6
52
46
14
19
55
80
47
8
62
71
17
51
42
9
34
68
54
58
29
56
64
24
28
79
45
77
5
63
16
13
60
12
27
11
10
53
78
26
2
38
67
15
4
31
36
35
25
48
72
49
69
23
57
74
40
73
61
-1
EOF
